GLPSOL--GLPK LP/MIP Solver 5.0
Parameter(s) specified in the command line:
 --cpxlp --first inputs/new_tr/order/default40_down_left_input.lp -o solutions/new_tr/default40_down_left_input.lp
Reading problem data from 'inputs/new_tr/order/default40_down_left_input.lp'...
inputs/new_tr/order/default40_down_left_input.lp:9122: warning: lower bound of variable 'm_1_1' redefined
inputs/new_tr/order/default40_down_left_input.lp:9122: warning: upper bound of variable 'm_1_1' redefined
8442 rows, 3241 columns, 25539 non-zeros
3241 integer variables, 2568 of which are binary
12322 lines were read
GLPK Integer Optimizer 5.0
8442 rows, 3241 columns, 25539 non-zeros
3241 integer variables, 2568 of which are binary
Preprocessing...
499 hidden packing inequaliti(es) were detected
208 hidden covering inequaliti(es) were detected
598 constraint coefficient(s) were reduced
3743 rows, 1414 columns, 10366 non-zeros
1414 integer variables, 1373 of which are binary
Scaling...
 A: min|aij| =  1.000e+00  max|aij| =  1.024e+04  ratio =  1.024e+04
GM: min|aij| =  3.976e-01  max|aij| =  2.515e+00  ratio =  6.325e+00
EQ: min|aij| =  1.581e-01  max|aij| =  1.000e+00  ratio =  6.325e+00
2N: min|aij| =  1.250e-01  max|aij| =  1.750e+00  ratio =  1.400e+01
Constructing initial basis...
Size of triangular part is 3444
Solving LP relaxation...
GLPK Simplex Optimizer 5.0
3743 rows, 1414 columns, 10366 non-zeros
      0: obj =   3.686400000e+04 inf =   9.901e+02 (645)
   1484: obj =   6.044849268e+04 inf =   9.437e-16 (0) 14
*  1888: obj =   4.833377408e+04 inf =   4.964e-13 (0) 3
OPTIMAL LP SOLUTION FOUND
Integer optimization begins...
Long-step dual simplex will be used
+  1888: mip =     not found yet >=              -inf        (1; 0)
+ 26005: mip =     not found yet >=   4.833400000e+04        (157; 14)
+ 26508: >>>>>   6.758400000e+04 >=   4.833400000e+04  28.5% (175; 14)
+ 30393: >>>>>   6.144000000e+04 >=   4.833400000e+04  21.3% (209; 43)
+ 38418: >>>>>   5.120000000e+04 >=   4.833400000e+04   5.6% (289; 83)
+ 60627: mip =   5.120000000e+04 >=   4.833400000e+04   5.6% (251; 375)
+ 82881: mip =   5.120000000e+04 >=   4.833400000e+04   5.6% (317; 397)
+105373: mip =   5.120000000e+04 >=   4.833400000e+04   5.6% (405; 422)
+128600: mip =   5.120000000e+04 >=   4.833400000e+04   5.6% (473; 448)
+151189: mip =   5.120000000e+04 >=   4.833400000e+04   5.6% (583; 488)
+176377: mip =   5.120000000e+04 >=   4.833400000e+04   5.6% (693; 530)
+198507: mip =   5.120000000e+04 >=   4.833400000e+04   5.6% (763; 557)
+221483: mip =   5.120000000e+04 >=   4.833400000e+04   5.6% (864; 593)
+243260: mip =   5.120000000e+04 >=   4.833400000e+04   5.6% (921; 618)
+266325: mip =   5.120000000e+04 >=   4.833400000e+04   5.6% (977; 645)
Time used: 60.1 secs.  Memory used: 14.4 Mb.
+289131: mip =   5.120000000e+04 >=   4.833400000e+04   5.6% (1063; 680)
+300423: >>>>>   5.017600000e+04 >=   4.833400000e+04   3.7% (1115; 693)
+322826: mip =   5.017600000e+04 >=   4.833400000e+04   3.7% (486; 2074)
+344934: mip =   5.017600000e+04 >=   4.833400000e+04   3.7% (506; 2120)
+367022: mip =   5.017600000e+04 >=   4.833400000e+04   3.7% (563; 2162)
+389520: mip =   5.017600000e+04 >=   4.833400000e+04   3.7% (596; 2186)
+411397: mip =   5.017600000e+04 >=   4.833400000e+04   3.7% (609; 2211)
+434270: mip =   5.017600000e+04 >=   4.833400000e+04   3.7% (660; 2250)
+457352: mip =   5.017600000e+04 >=   4.833400000e+04   3.7% (694; 2274)
+481178: mip =   5.017600000e+04 >=   4.833400000e+04   3.7% (747; 2297)
+504882: mip =   5.017600000e+04 >=   4.833400000e+04   3.7% (781; 2327)
+527292: mip =   5.017600000e+04 >=   4.833400000e+04   3.7% (809; 2349)
Time used: 120.3 secs.  Memory used: 15.9 Mb.
+549782: mip =   5.017600000e+04 >=   4.833400000e+04   3.7% (837; 2380)
+572880: mip =   5.017600000e+04 >=   4.833400000e+04   3.7% (866; 2428)
+595910: mip =   5.017600000e+04 >=   4.833400000e+04   3.7% (882; 2486)
+618912: mip =   5.017600000e+04 >=   4.833400000e+04   3.7% (926; 2523)
+640620: mip =   5.017600000e+04 >=   4.833400000e+04   3.7% (943; 2556)
+663091: mip =   5.017600000e+04 >=   4.833400000e+04   3.7% (981; 2597)
+686191: mip =   5.017600000e+04 >=   4.833400000e+04   3.7% (997; 2627)
+711481: mip =   5.017600000e+04 >=   4.833400000e+04   3.7% (1048; 2678)
+734998: mip =   5.017600000e+04 >=   4.833400000e+04   3.7% (1063; 2723)
+756799: mip =   5.017600000e+04 >=   4.833400000e+04   3.7% (1079; 2765)
+778202: mip =   5.017600000e+04 >=   4.833400000e+04   3.7% (1106; 2821)
+801582: mip =   5.017600000e+04 >=   4.833400000e+04   3.7% (1167; 2865)
+802865: >>>>>   4.915200000e+04 >=   4.833400000e+04   1.7% (1190; 2867)
Time used: 180.3 secs.  Memory used: 21.0 Mb.
+826064: mip =   4.915200000e+04 >=   4.833400000e+04   1.7% (706; 3990)
+849200: mip =   4.915200000e+04 >=   4.833400000e+04   1.7% (709; 4068)
+872836: mip =   4.915200000e+04 >=   4.833400000e+04   1.7% (729; 4232)
+895395: mip =   4.915200000e+04 >=   4.833400000e+04   1.7% (763; 4330)
+918409: mip =   4.915200000e+04 >=   4.833400000e+04   1.7% (792; 4541)
+941193: mip =   4.915200000e+04 >=   4.833400000e+04   1.7% (828; 4678)
+963250: mip =   4.915200000e+04 >=   4.833400000e+04   1.7% (874; 4787)
+986958: mip =   4.915200000e+04 >=   4.833400000e+04   1.7% (902; 4978)
+1009797: mip =   4.915200000e+04 >=   4.833400000e+04   1.7% (922; 5112)
+1032412: mip =   4.915200000e+04 >=   4.833400000e+04   1.7% (957; 5250)
+1054930: mip =   4.915200000e+04 >=   4.833400000e+04   1.7% (964; 5383)
+1077548: mip =   4.915200000e+04 >=   4.833400000e+04   1.7% (981; 5436)
Time used: 240.3 secs.  Memory used: 21.0 Mb.
+1100276: mip =   4.915200000e+04 >=   4.833400000e+04   1.7% (990; 5495)
+1122782: mip =   4.915200000e+04 >=   4.833400000e+04   1.7% (1007; 5535)
+1145279: mip =   4.915200000e+04 >=   4.833400000e+04   1.7% (1020; 5583)
+1168098: mip =   4.915200000e+04 >=   4.833400000e+04   1.7% (1043; 5612)
+1190750: mip =   4.915200000e+04 >=   4.833400000e+04   1.7% (1046; 5657)
+1212956: mip =   4.915200000e+04 >=   4.833400000e+04   1.7% (1057; 5706)
+1236935: mip =   4.915200000e+04 >=   4.833400000e+04   1.7% (1074; 5765)
+1259715: mip =   4.915200000e+04 >=   4.833400000e+04   1.7% (1075; 5896)
+1282729: mip =   4.915200000e+04 >=   4.833400000e+04   1.7% (1084; 6095)
+1305640: mip =   4.915200000e+04 >=   4.833400000e+04   1.7% (1089; 6179)
+1328518: mip =   4.915200000e+04 >=   4.833400000e+04   1.7% (1094; 6354)
Time used: 300.3 secs.  Memory used: 22.9 Mb.
+1351589: mip =   4.915200000e+04 >=   4.833400000e+04   1.7% (1104; 6542)
+1375215: mip =   4.915200000e+04 >=   4.833400000e+04   1.7% (1113; 6638)
+1398710: mip =   4.915200000e+04 >=   4.833400000e+04   1.7% (1132; 6797)
+1422043: mip =   4.915200000e+04 >=   4.833400000e+04   1.7% (1143; 6858)
+1445374: mip =   4.915200000e+04 >=   4.833400000e+04   1.7% (1162; 7007)
+1469536: mip =   4.915200000e+04 >=   4.833400000e+04   1.7% (1182; 7182)
Warning: basis matrix is ill-conditioned (cond = 5.77e+12)
+1492710: mip =   4.915200000e+04 >=   4.833400000e+04   1.7% (1185; 7327)
+1515966: mip =   4.915200000e+04 >=   4.833400000e+04   1.7% (1174; 7594)
+1537904: mip =   4.915200000e+04 >=   4.833400000e+04   1.7% (1131; 7875)
+1561284: mip =   4.915200000e+04 >=   4.833400000e+04   1.7% (1139; 7972)
+1583555: mip =   4.915200000e+04 >=   4.833400000e+04   1.7% (1104; 8249)
+1607624: mip =   4.915200000e+04 >=   4.833400000e+04   1.7% (1114; 8462)
Time used: 360.4 secs.  Memory used: 24.1 Mb.
+1630266: mip =   4.915200000e+04 >=   4.833400000e+04   1.7% (1072; 8803)
+1652761: mip =   4.915200000e+04 >=   4.833400000e+04   1.7% (1054; 9044)
+1675030: mip =   4.915200000e+04 >=   4.833400000e+04   1.7% (1061; 9216)
+1697086: mip =   4.915200000e+04 >=   4.833400000e+04   1.7% (1047; 9413)
+1719314: mip =   4.915200000e+04 >=   4.833400000e+04   1.7% (1032; 9616)
+1742557: mip =   4.915200000e+04 >=   4.833400000e+04   1.7% (1038; 9721)
+1764653: mip =   4.915200000e+04 >=   4.833400000e+04   1.7% (1043; 9886)
+1787742: mip =   4.915200000e+04 >=   4.833400000e+04   1.7% (1051; 10053)
+1810503: mip =   4.915200000e+04 >=   4.833400000e+04   1.7% (1100; 10170)
+1832910: mip =   4.915200000e+04 >=   4.833400000e+04   1.7% (1129; 10243)
+1855214: mip =   4.915200000e+04 >=   4.833400000e+04   1.7% (1144; 10290)
+1879081: mip =   4.915200000e+04 >=   4.833400000e+04   1.7% (1165; 10380)
Time used: 420.5 secs.  Memory used: 25.4 Mb.
+1903012: mip =   4.915200000e+04 >=   4.833400000e+04   1.7% (1178; 10465)
+1926124: mip =   4.915200000e+04 >=   4.833400000e+04   1.7% (1204; 10557)
+1948662: mip =   4.915200000e+04 >=   4.833400000e+04   1.7% (1222; 10640)
+1973089: mip =   4.915200000e+04 >=   4.833400000e+04   1.7% (1243; 10699)
+1995415: mip =   4.915200000e+04 >=   4.833400000e+04   1.7% (1247; 10749)
+2019499: mip =   4.915200000e+04 >=   4.833400000e+04   1.7% (1271; 10805)
+2043284: mip =   4.915200000e+04 >=   4.833400000e+04   1.7% (1283; 10868)
+2068453: mip =   4.915200000e+04 >=   4.833400000e+04   1.7% (1295; 10927)
+2092881: mip =   4.915200000e+04 >=   4.833400000e+04   1.7% (1333; 10996)
+2116636: mip =   4.915200000e+04 >=   4.833400000e+04   1.7% (1356; 11059)
+2140812: mip =   4.915200000e+04 >=   4.833400000e+04   1.7% (1360; 11126)
+2163953: mip =   4.915200000e+04 >=   4.833400000e+04   1.7% (1363; 11186)
Time used: 480.5 secs.  Memory used: 28.4 Mb.
+2186475: mip =   4.915200000e+04 >=   4.833400000e+04   1.7% (1395; 11334)
+2210062: mip =   4.915200000e+04 >=   4.833400000e+04   1.7% (1387; 11491)
+2233406: mip =   4.915200000e+04 >=   4.833400000e+04   1.7% (1386; 11530)
+2256005: mip =   4.915200000e+04 >=   4.833400000e+04   1.7% (1423; 11630)
+2278759: mip =   4.915200000e+04 >=   4.833400000e+04   1.7% (1472; 11703)
+2301532: mip =   4.915200000e+04 >=   4.833400000e+04   1.7% (1493; 11841)
+2324618: mip =   4.915200000e+04 >=   4.833400000e+04   1.7% (1492; 11997)
+2347728: mip =   4.915200000e+04 >=   4.833400000e+04   1.7% (1507; 12130)
+2370886: mip =   4.915200000e+04 >=   4.833400000e+04   1.7% (1514; 12189)
+2394366: mip =   4.915200000e+04 >=   4.833400000e+04   1.7% (1533; 12269)
+2417663: mip =   4.915200000e+04 >=   4.833400000e+04   1.7% (1551; 12434)
+2440520: mip =   4.915200000e+04 >=   4.833400000e+04   1.7% (1573; 12528)
Time used: 540.5 secs.  Memory used: 30.9 Mb.
+2464007: mip =   4.915200000e+04 >=   4.833400000e+04   1.7% (1594; 12674)
+2487206: mip =   4.915200000e+04 >=   4.833400000e+04   1.7% (1627; 12778)
+2511054: mip =   4.915200000e+04 >=   4.833400000e+04   1.7% (1644; 12915)
+2534549: mip =   4.915200000e+04 >=   4.833400000e+04   1.7% (1670; 13033)
+2557197: mip =   4.915200000e+04 >=   4.833400000e+04   1.7% (1690; 13150)
+2579671: mip =   4.915200000e+04 >=   4.833400000e+04   1.7% (1704; 13231)
+2603714: mip =   4.915200000e+04 >=   4.833400000e+04   1.7% (1723; 13373)
+2627534: mip =   4.915200000e+04 >=   4.833400000e+04   1.7% (1755; 13476)
+2651118: mip =   4.915200000e+04 >=   4.833400000e+04   1.7% (1762; 13612)
+2673425: mip =   4.915200000e+04 >=   4.833400000e+04   1.7% (1793; 13689)
+2696295: mip =   4.915200000e+04 >=   4.833400000e+04   1.7% (1802; 13804)
+2719725: mip =   4.915200000e+04 >=   4.833400000e+04   1.7% (1820; 13916)
Time used: 600.7 secs.  Memory used: 33.5 Mb.
+2743255: mip =   4.915200000e+04 >=   4.833400000e+04   1.7% (1837; 14033)
+2765667: mip =   4.915200000e+04 >=   4.833400000e+04   1.7% (1849; 14186)
+2788881: mip =   4.915200000e+04 >=   4.833400000e+04   1.7% (1882; 14323)
+2811116: mip =   4.915200000e+04 >=   4.833400000e+04   1.7% (1892; 14400)
+2833862: mip =   4.915200000e+04 >=   4.833400000e+04   1.7% (1885; 14532)
+2856460: mip =   4.915200000e+04 >=   4.833400000e+04   1.7% (1883; 14621)
+2880390: mip =   4.915200000e+04 >=   4.833400000e+04   1.7% (1900; 14750)
+2903725: mip =   4.915200000e+04 >=   4.833400000e+04   1.7% (1909; 14895)
+2927334: mip =   4.915200000e+04 >=   4.833400000e+04   1.7% (1933; 15039)
+2950463: mip =   4.915200000e+04 >=   4.833400000e+04   1.7% (1963; 15174)
+2974597: mip =   4.915200000e+04 >=   4.833400000e+04   1.7% (1991; 15318)
Time used: 660.9 secs.  Memory used: 35.7 Mb.
+2996966: mip =   4.915200000e+04 >=   4.833400000e+04   1.7% (1995; 15391)
+3019870: mip =   4.915200000e+04 >=   4.833400000e+04   1.7% (2001; 15522)
+3042895: mip =   4.915200000e+04 >=   4.833400000e+04   1.7% (2010; 15632)
+3065683: mip =   4.915200000e+04 >=   4.833400000e+04   1.7% (2019; 15815)
+3089506: mip =   4.915200000e+04 >=   4.833400000e+04   1.7% (2035; 15981)
+3113540: mip =   4.915200000e+04 >=   4.833400000e+04   1.7% (2047; 16103)
+3137420: mip =   4.915200000e+04 >=   4.833400000e+04   1.7% (2058; 16194)
+3160659: mip =   4.915200000e+04 >=   4.833400000e+04   1.7% (2076; 16311)
+3183814: mip =   4.915200000e+04 >=   4.833400000e+04   1.7% (2105; 16403)
+3206101: mip =   4.915200000e+04 >=   4.833400000e+04   1.7% (2115; 16513)
+3229733: mip =   4.915200000e+04 >=   4.833400000e+04   1.7% (2162; 16642)
+3253664: mip =   4.915200000e+04 >=   4.833400000e+04   1.7% (2204; 16781)
Time used: 720.9 secs.  Memory used: 38.7 Mb.
+3276567: mip =   4.915200000e+04 >=   4.833400000e+04   1.7% (2219; 16875)
+3299899: mip =   4.915200000e+04 >=   4.833400000e+04   1.7% (2262; 16994)
+3324384: mip =   4.915200000e+04 >=   4.833400000e+04   1.7% (2303; 17154)
+3347161: mip =   4.915200000e+04 >=   4.833400000e+04   1.7% (2319; 17264)
+3370415: mip =   4.915200000e+04 >=   4.833400000e+04   1.7% (2333; 17452)
+3393353: mip =   4.915200000e+04 >=   4.833400000e+04   1.7% (2359; 17593)
+3417161: mip =   4.915200000e+04 >=   4.833400000e+04   1.7% (2376; 17772)
+3440620: mip =   4.915200000e+04 >=   4.833400000e+04   1.7% (2399; 17927)
+3463966: mip =   4.915200000e+04 >=   4.833400000e+04   1.7% (2421; 18080)
+3487621: mip =   4.915200000e+04 >=   4.833400000e+04   1.7% (2454; 18197)
+3511226: mip =   4.915200000e+04 >=   4.833400000e+04   1.7% (2483; 18332)
+3534856: mip =   4.915200000e+04 >=   4.833400000e+04   1.7% (2508; 18461)
Time used: 781.0 secs.  Memory used: 42.0 Mb.
+3557834: mip =   4.915200000e+04 >=   4.833400000e+04   1.7% (2504; 18590)
+3582122: mip =   4.915200000e+04 >=   4.833400000e+04   1.7% (2488; 18778)
+3604291: mip =   4.915200000e+04 >=   4.833400000e+04   1.7% (2487; 18893)
+3627735: mip =   4.915200000e+04 >=   4.833400000e+04   1.7% (2479; 19048)
+3650922: mip =   4.915200000e+04 >=   4.833400000e+04   1.7% (2475; 19187)
+3674333: mip =   4.915200000e+04 >=   4.833400000e+04   1.7% (2482; 19268)
+3697870: mip =   4.915200000e+04 >=   4.833400000e+04   1.7% (2490; 19337)
+3721352: mip =   4.915200000e+04 >=   4.833400000e+04   1.7% (2490; 19481)
+3745859: mip =   4.915200000e+04 >=   4.833400000e+04   1.7% (2495; 19605)
+3769107: mip =   4.915200000e+04 >=   4.833400000e+04   1.7% (2498; 19714)
+3792604: mip =   4.915200000e+04 >=   4.833400000e+04   1.7% (2507; 19785)
+3815913: mip =   4.915200000e+04 >=   4.833400000e+04   1.7% (2513; 19924)
Time used: 841.0 secs.  Memory used: 43.5 Mb.
+3838917: mip =   4.915200000e+04 >=   4.833400000e+04   1.7% (2505; 20099)
+3860279: mip =   4.915200000e+04 >=   4.833400000e+04   1.7% (2519; 20192)
+3882232: mip =   4.915200000e+04 >=   4.833400000e+04   1.7% (2487; 20338)
+3904527: mip =   4.915200000e+04 >=   4.833400000e+04   1.7% (2463; 20588)
+3927434: mip =   4.915200000e+04 >=   4.833400000e+04   1.7% (2458; 20747)
+3951697: mip =   4.915200000e+04 >=   4.833400000e+04   1.7% (2476; 20900)
+3974224: mip =   4.915200000e+04 >=   4.833400000e+04   1.7% (2480; 20993)
+3996288: mip =   4.915200000e+04 >=   4.833400000e+04   1.7% (2464; 21181)
+4019467: mip =   4.915200000e+04 >=   4.833400000e+04   1.7% (2460; 21341)
+4042469: mip =   4.915200000e+04 >=   4.833400000e+04   1.7% (2450; 21468)
+4065718: mip =   4.915200000e+04 >=   4.833400000e+04   1.7% (2425; 21669)
+4086982: mip =   4.915200000e+04 >=   4.833400000e+04   1.7% (2398; 21842)
Time used: 901.0 secs.  Memory used: 43.9 Mb.
+4109814: mip =   4.915200000e+04 >=   4.833400000e+04   1.7% (2402; 21993)
+4132527: mip =   4.915200000e+04 >=   4.833400000e+04   1.7% (2401; 22135)
+4155050: mip =   4.915200000e+04 >=   4.833400000e+04   1.7% (2387; 22340)
+4179012: mip =   4.915200000e+04 >=   4.833400000e+04   1.7% (2378; 22462)
+4201622: mip =   4.915200000e+04 >=   4.833400000e+04   1.7% (2381; 22568)
+4224835: mip =   4.915200000e+04 >=   4.833400000e+04   1.7% (2382; 22717)
+4247356: mip =   4.915200000e+04 >=   4.833400000e+04   1.7% (2380; 22883)
+4269733: mip =   4.915200000e+04 >=   4.833400000e+04   1.7% (2384; 23015)
+4292006: mip =   4.915200000e+04 >=   4.833400000e+04   1.7% (2373; 23153)
+4314609: mip =   4.915200000e+04 >=   4.833400000e+04   1.7% (2361; 23318)
+4337168: mip =   4.915200000e+04 >=   4.833400000e+04   1.7% (2347; 23479)
+4359923: mip =   4.915200000e+04 >=   4.833400000e+04   1.7% (2350; 23534)
Time used: 961.0 secs.  Memory used: 44.6 Mb.
+4382218: mip =   4.915200000e+04 >=   4.833400000e+04   1.7% (2361; 23665)
+4404570: mip =   4.915200000e+04 >=   4.833400000e+04   1.7% (2378; 23744)
+4427080: mip =   4.915200000e+04 >=   4.833400000e+04   1.7% (2389; 23834)
+4450946: mip =   4.915200000e+04 >=   4.833400000e+04   1.7% (2402; 23972)
+4473186: mip =   4.915200000e+04 >=   4.833400000e+04   1.7% (2400; 24106)
+4496527: mip =   4.915200000e+04 >=   4.833400000e+04   1.7% (2410; 24262)
+4519525: mip =   4.915200000e+04 >=   4.833400000e+04   1.7% (2411; 24369)
+4542025: mip =   4.915200000e+04 >=   4.833400000e+04   1.7% (2411; 24534)
+4565384: mip =   4.915200000e+04 >=   4.833400000e+04   1.7% (2396; 24742)
+4588491: mip =   4.915200000e+04 >=   4.833400000e+04   1.7% (2405; 24811)
+4612087: mip =   4.915200000e+04 >=   4.833400000e+04   1.7% (2398; 24936)
+4635090: mip =   4.915200000e+04 >=   4.833400000e+04   1.7% (2398; 25033)
Time used: 1021.1 secs.  Memory used: 46.4 Mb.
+4657239: mip =   4.915200000e+04 >=   4.833400000e+04   1.7% (2400; 25114)
+4681755: mip =   4.915200000e+04 >=   4.833400000e+04   1.7% (2411; 25218)
+4704907: mip =   4.915200000e+04 >=   4.833400000e+04   1.7% (2423; 25288)
+4728257: mip =   4.915200000e+04 >=   4.833400000e+04   1.7% (2437; 25351)
+4752963: mip =   4.915200000e+04 >=   4.833400000e+04   1.7% (2448; 25421)
+4775709: mip =   4.915200000e+04 >=   4.833400000e+04   1.7% (2435; 25563)
+4798450: mip =   4.915200000e+04 >=   4.833400000e+04   1.7% (2420; 25720)
+4821091: mip =   4.915200000e+04 >=   4.833400000e+04   1.7% (2431; 25847)
+4844273: mip =   4.915200000e+04 >=   4.833400000e+04   1.7% (2438; 25981)
+4866951: mip =   4.915200000e+04 >=   4.833400000e+04   1.7% (2439; 26186)
+4889868: mip =   4.915200000e+04 >=   4.833400000e+04   1.7% (2443; 26348)
Time used: 1081.1 secs.  Memory used: 48.0 Mb.
+4912261: mip =   4.915200000e+04 >=   4.833400000e+04   1.7% (2441; 26454)
+4935189: mip =   4.915200000e+04 >=   4.833400000e+04   1.7% (2449; 26580)
+4958309: mip =   4.915200000e+04 >=   4.833400000e+04   1.7% (2456; 26677)
+4980732: mip =   4.915200000e+04 >=   4.833400000e+04   1.7% (2462; 26823)
+5003019: mip =   4.915200000e+04 >=   4.833400000e+04   1.7% (2457; 27047)
+5025744: mip =   4.915200000e+04 >=   4.833400000e+04   1.7% (2451; 27242)
+5048545: mip =   4.915200000e+04 >=   4.833400000e+04   1.7% (2456; 27350)
+5071298: mip =   4.915200000e+04 >=   4.833400000e+04   1.7% (2473; 27456)
+5094883: mip =   4.915200000e+04 >=   4.833400000e+04   1.7% (2482; 27522)
+5117193: mip =   4.915200000e+04 >=   4.833400000e+04   1.7% (2469; 27701)
+5140166: mip =   4.915200000e+04 >=   4.833400000e+04   1.7% (2483; 27838)
+5162980: mip =   4.915200000e+04 >=   4.833400000e+04   1.7% (2501; 27996)
Time used: 1141.3 secs.  Memory used: 49.4 Mb.
+5185246: mip =   4.915200000e+04 >=   4.833400000e+04   1.7% (2510; 28131)
+5208003: mip =   4.915200000e+04 >=   4.833400000e+04   1.7% (2520; 28287)
+5230174: mip =   4.915200000e+04 >=   4.833400000e+04   1.7% (2533; 28351)
+5252479: mip =   4.915200000e+04 >=   4.833400000e+04   1.7% (2522; 28506)
+5275513: mip =   4.915200000e+04 >=   4.833400000e+04   1.7% (2517; 28712)
+5298156: mip =   4.915200000e+04 >=   4.833400000e+04   1.7% (2517; 28905)
+5321180: mip =   4.915200000e+04 >=   4.833400000e+04   1.7% (2513; 29064)
+5344516: mip =   4.915200000e+04 >=   4.833400000e+04   1.7% (2520; 29202)
+5367803: mip =   4.915200000e+04 >=   4.833400000e+04   1.7% (2517; 29373)
+5390887: mip =   4.915200000e+04 >=   4.833400000e+04   1.7% (2501; 29621)
+5412866: mip =   4.915200000e+04 >=   4.833400000e+04   1.7% (2506; 29739)
+5435904: mip =   4.915200000e+04 >=   4.833400000e+04   1.7% (2503; 29947)
Time used: 1201.4 secs.  Memory used: 50.1 Mb.
+5458344: mip =   4.915200000e+04 >=   4.833400000e+04   1.7% (2513; 30103)
+5480309: mip =   4.915200000e+04 >=   4.833400000e+04   1.7% (2487; 30296)
+5503391: mip =   4.915200000e+04 >=   4.833400000e+04   1.7% (2493; 30468)
+5526757: mip =   4.915200000e+04 >=   4.833400000e+04   1.7% (2521; 30584)
+5549307: mip =   4.915200000e+04 >=   4.833400000e+04   1.7% (2524; 30747)
+5571717: mip =   4.915200000e+04 >=   4.833400000e+04   1.7% (2545; 30876)
+5593754: mip =   4.915200000e+04 >=   4.833400000e+04   1.7% (2534; 30986)
+5616274: mip =   4.915200000e+04 >=   4.833400000e+04   1.7% (2521; 31186)
+5639267: mip =   4.915200000e+04 >=   4.833400000e+04   1.7% (2540; 31386)
+5662781: mip =   4.915200000e+04 >=   4.833400000e+04   1.7% (2559; 31580)
+5685419: mip =   4.915200000e+04 >=   4.833400000e+04   1.7% (2564; 31628)
+5707997: mip =   4.915200000e+04 >=   4.833400000e+04   1.7% (2574; 31686)
Time used: 1261.4 secs.  Memory used: 51.5 Mb.
+5730476: mip =   4.915200000e+04 >=   4.833400000e+04   1.7% (2572; 31860)
+5753069: mip =   4.915200000e+04 >=   4.833400000e+04   1.7% (2565; 32052)
+5775741: mip =   4.915200000e+04 >=   4.833400000e+04   1.7% (2567; 32214)
+5799358: mip =   4.915200000e+04 >=   4.833400000e+04   1.7% (2564; 32385)
+5821868: mip =   4.915200000e+04 >=   4.833400000e+04   1.7% (2558; 32554)
+5845181: mip =   4.915200000e+04 >=   4.833400000e+04   1.7% (2519; 32828)
+5866862: mip =   4.915200000e+04 >=   4.833400000e+04   1.7% (2517; 32967)
+5889433: mip =   4.915200000e+04 >=   4.833400000e+04   1.7% (2532; 33188)
+5912502: mip =   4.915200000e+04 >=   4.833400000e+04   1.7% (2570; 33308)
+5935310: mip =   4.915200000e+04 >=   4.833400000e+04   1.7% (2583; 33446)
+5957750: mip =   4.915200000e+04 >=   4.833400000e+04   1.7% (2536; 33729)
+5980200: mip =   4.915200000e+04 >=   4.833400000e+04   1.7% (2537; 33929)
Time used: 1321.4 secs.  Memory used: 52.1 Mb.
+6002776: mip =   4.915200000e+04 >=   4.833400000e+04   1.7% (2506; 34281)
+6025076: mip =   4.915200000e+04 >=   4.833400000e+04   1.7% (2472; 34576)
+6047795: mip =   4.915200000e+04 >=   4.833400000e+04   1.7% (2453; 34808)
+6069928: mip =   4.915200000e+04 >=   4.833400000e+04   1.7% (2463; 34928)
+6092531: mip =   4.915200000e+04 >=   4.833400000e+04   1.7% (2468; 35092)
+6114841: mip =   4.915200000e+04 >=   4.833400000e+04   1.7% (2476; 35184)
+6136692: mip =   4.915200000e+04 >=   4.833400000e+04   1.7% (2493; 35380)
+6158835: mip =   4.915200000e+04 >=   4.833400000e+04   1.7% (2515; 35585)
+6180354: mip =   4.915200000e+04 >=   4.833400000e+04   1.7% (2532; 35645)
+6202129: mip =   4.915200000e+04 >=   4.833400000e+04   1.7% (2562; 35675)
+6224104: mip =   4.915200000e+04 >=   4.833400000e+04   1.7% (2586; 35719)
+6246010: mip =   4.915200000e+04 >=   4.833400000e+04   1.7% (2618; 35780)
Time used: 1381.6 secs.  Memory used: 53.7 Mb.
+6268881: mip =   4.915200000e+04 >=   4.833400000e+04   1.7% (2622; 35921)
+6290724: mip =   4.915200000e+04 >=   4.833400000e+04   1.7% (2625; 36048)
+6312548: mip =   4.915200000e+04 >=   4.833400000e+04   1.7% (2612; 36127)
+6335585: mip =   4.915200000e+04 >=   4.833400000e+04   1.7% (2625; 36227)
+6357318: mip =   4.915200000e+04 >=   4.833400000e+04   1.7% (2604; 36371)
+6380252: mip =   4.915200000e+04 >=   4.833400000e+04   1.7% (2620; 36522)
+6402455: mip =   4.915200000e+04 >=   4.833400000e+04   1.7% (2617; 36672)
+6425033: mip =   4.915200000e+04 >=   4.833400000e+04   1.7% (2668; 36742)
+6448614: mip =   4.915200000e+04 >=   4.833400000e+04   1.7% (2697; 36817)
+6470716: mip =   4.915200000e+04 >=   4.833400000e+04   1.7% (2703; 36975)
+6493546: mip =   4.915200000e+04 >=   4.833400000e+04   1.7% (2707; 37097)
Time used: 1441.8 secs.  Memory used: 56.1 Mb.
+6514071: mip =   4.915200000e+04 >=   4.833400000e+04   1.7% (2716; 37162)
+6536156: mip =   4.915200000e+04 >=   4.833400000e+04   1.7% (2710; 37327)
Warning: basis matrix is ill-conditioned (cond = 8.11e+12)
+6558335: mip =   4.915200000e+04 >=   4.833400000e+04   1.7% (2724; 37463)
+6580370: mip =   4.915200000e+04 >=   4.833400000e+04   1.7% (2730; 37574)
+6603158: mip =   4.915200000e+04 >=   4.833400000e+04   1.7% (2754; 37703)
+6624215: mip =   4.915200000e+04 >=   4.833400000e+04   1.7% (2775; 37737)
+6646816: mip =   4.915200000e+04 >=   4.833400000e+04   1.7% (2791; 37831)
+6668312: mip =   4.915200000e+04 >=   4.833400000e+04   1.7% (2760; 37999)
+6690314: mip =   4.915200000e+04 >=   4.833400000e+04   1.7% (2786; 38094)
+6712876: mip =   4.915200000e+04 >=   4.833400000e+04   1.7% (2809; 38169)
+6734609: mip =   4.915200000e+04 >=   4.833400000e+04   1.7% (2820; 38214)
+6756893: mip =   4.915200000e+04 >=   4.833400000e+04   1.7% (2828; 38276)
Time used: 1501.9 secs.  Memory used: 58.4 Mb.
+6778785: mip =   4.915200000e+04 >=   4.833400000e+04   1.7% (2842; 38330)
+6800707: mip =   4.915200000e+04 >=   4.833400000e+04   1.7% (2854; 38397)
+6822520: mip =   4.915200000e+04 >=   4.833400000e+04   1.7% (2857; 38461)
+6844585: mip =   4.915200000e+04 >=   4.833400000e+04   1.7% (2870; 38588)
+6866223: mip =   4.915200000e+04 >=   4.833400000e+04   1.7% (2900; 38654)
+6889217: mip =   4.915200000e+04 >=   4.833400000e+04   1.7% (2935; 38774)
+6913801: mip =   4.915200000e+04 >=   4.833400000e+04   1.7% (2959; 38901)
+6936563: mip =   4.915200000e+04 >=   4.833400000e+04   1.7% (2963; 39015)
+6958673: mip =   4.915200000e+04 >=   4.833400000e+04   1.7% (2953; 39146)
+6981192: mip =   4.915200000e+04 >=   4.833400000e+04   1.7% (2977; 39268)
+7003159: mip =   4.915200000e+04 >=   4.833400000e+04   1.7% (2997; 39378)
+7025407: mip =   4.915200000e+04 >=   4.833400000e+04   1.7% (3022; 39493)
Time used: 1562.0 secs.  Memory used: 61.0 Mb.
+7047060: mip =   4.915200000e+04 >=   4.833400000e+04   1.7% (3033; 39611)
+7069794: mip =   4.915200000e+04 >=   4.833400000e+04   1.7% (3056; 39653)
+7091945: mip =   4.915200000e+04 >=   4.833400000e+04   1.7% (3063; 39830)
+7115200: mip =   4.915200000e+04 >=   4.833400000e+04   1.7% (3108; 39958)
+7138016: mip =   4.915200000e+04 >=   4.833400000e+04   1.7% (3137; 40085)
+7160702: mip =   4.915200000e+04 >=   4.833400000e+04   1.7% (3135; 40191)
+7183534: mip =   4.915200000e+04 >=   4.833400000e+04   1.7% (3148; 40359)
+7206901: mip =   4.915200000e+04 >=   4.833400000e+04   1.7% (3161; 40501)
+7230356: mip =   4.915200000e+04 >=   4.833400000e+04   1.7% (3165; 40632)
+7253208: mip =   4.915200000e+04 >=   4.833400000e+04   1.7% (3179; 40713)
+7275284: mip =   4.915200000e+04 >=   4.833400000e+04   1.7% (3183; 40794)
+7297117: mip =   4.915200000e+04 >=   4.833400000e+04   1.7% (3177; 40930)
Time used: 1622.3 secs.  Memory used: 63.4 Mb.
+7319134: mip =   4.915200000e+04 >=   4.833400000e+04   1.7% (3146; 41120)
+7341225: mip =   4.915200000e+04 >=   4.833400000e+04   1.7% (3155; 41245)
+7363342: mip =   4.915200000e+04 >=   4.833400000e+04   1.7% (3155; 41354)
+7384718: mip =   4.915200000e+04 >=   4.833400000e+04   1.7% (3130; 41510)
+7406901: mip =   4.915200000e+04 >=   4.833400000e+04   1.7% (3106; 41698)
+7428472: mip =   4.915200000e+04 >=   4.833400000e+04   1.7% (3095; 41846)
+7450289: mip =   4.915200000e+04 >=   4.833400000e+04   1.7% (3095; 41966)
+7472841: mip =   4.915200000e+04 >=   4.833400000e+04   1.7% (3107; 42089)
+7495121: mip =   4.915200000e+04 >=   4.833400000e+04   1.7% (3113; 42192)
+7517168: mip =   4.915200000e+04 >=   4.833400000e+04   1.7% (3083; 42401)
+7538174: mip =   4.915200000e+04 >=   4.833400000e+04   1.7% (3109; 42524)
+7559555: mip =   4.915200000e+04 >=   4.833400000e+04   1.7% (3163; 42635)
Time used: 1682.5 secs.  Memory used: 64.6 Mb.
+7581995: mip =   4.915200000e+04 >=   4.833400000e+04   1.7% (3187; 42685)
+7604119: mip =   4.915200000e+04 >=   4.833400000e+04   1.7% (3200; 42735)
+7626480: mip =   4.915200000e+04 >=   4.833400000e+04   1.7% (3224; 42809)
+7648982: mip =   4.915200000e+04 >=   4.833400000e+04   1.7% (3242; 42934)
+7672471: mip =   4.915200000e+04 >=   4.833400000e+04   1.7% (3255; 42985)
+7694586: mip =   4.915200000e+04 >=   4.833400000e+04   1.7% (3260; 43048)
+7716952: mip =   4.915200000e+04 >=   4.833400000e+04   1.7% (3280; 43105)
+7740757: mip =   4.915200000e+04 >=   4.833400000e+04   1.7% (3292; 43158)
+7764655: mip =   4.915200000e+04 >=   4.833400000e+04   1.7% (3309; 43225)
+7786529: mip =   4.915200000e+04 >=   4.833400000e+04   1.7% (3315; 43269)
+7809751: mip =   4.915200000e+04 >=   4.833400000e+04   1.7% (3352; 43332)
Time used: 1742.6 secs.  Memory used: 67.4 Mb.
+7831212: mip =   4.915200000e+04 >=   4.833400000e+04   1.7% (3357; 43393)
+7854388: mip =   4.915200000e+04 >=   4.833400000e+04   1.7% (3382; 43462)
+7876931: mip =   4.915200000e+04 >=   4.833400000e+04   1.7% (3382; 43513)
+7899714: mip =   4.915200000e+04 >=   4.833400000e+04   1.7% (3385; 43577)
+7922636: mip =   4.915200000e+04 >=   4.833400000e+04   1.7% (3392; 43647)
+7944536: mip =   4.915200000e+04 >=   4.833400000e+04   1.7% (3382; 43771)
+7966122: mip =   4.915200000e+04 >=   4.833400000e+04   1.7% (3471; 43883)
+7987365: mip =   4.915200000e+04 >=   4.833400000e+04   1.7% (3486; 43958)
+8009779: mip =   4.915200000e+04 >=   4.833400000e+04   1.7% (3488; 44091)
+8030113: mip =   4.915200000e+04 >=   4.833400000e+04   1.7% (3493; 44196)
+8053132: mip =   4.915200000e+04 >=   4.833400000e+04   1.7% (3506; 44294)
+8075202: mip =   4.915200000e+04 >=   4.833400000e+04   1.7% (3516; 44353)
